n = 8;
m = 2;

G = 
[[0.   0.05 0.   0.41 0.74 0.   0.77 0.23]
 [0.05 0.   0.   0.   0.52 0.23 0.38 0.61]
 [0.   0.   0.   0.   0.43 0.   0.   0.3 ]
 [0.41 0.   0.   0.   0.22 0.27 0.29 0.  ]
 [0.74 0.52 0.43 0.22 0.   0.64 0.42 0.41]
 [0.   0.23 0.   0.27 0.64 0.   0.   0.  ]
 [0.77 0.38 0.   0.29 0.42 0.   0.   0.  ]
 [0.23 0.61 0.3  0.   0.41 0.   0.   0.  ]];

H = 
[[0.   0.76]
 [0.76 0.  ]];
